qbf_easy_train/easy_2812_SAT.qdimacs
p cnf 18 40
a 10 3 15 0
e 1 2 4 5 6 7 8 9 11 12 13 14 16 17 18 0
-4 -2 0
-4 -3 0
2 3 4 0
1 -4 -5 0
-1 4 -5 0
1 4 5 0
-1 -4 5 0
8 -6 0
8 -7 0
6 7 -8 0
-10 9 0
-10 -7 0
-9 7 10 0
-8 -10 -11 0
8 10 -11 0
-8 10 11 0
8 -10 11 0
-13 12 0
-13 10 0
-12 -10 13 0
4 14 -15 0
-4 -14 -15 0
4 -14 15 0
-4 14 15 0
13 15 -16 0
-13 -15 -16 0
13 -15 16 0
-13 15 16 0
-11 -16 -17 0
11 16 -17 0
-11 16 17 0
11 -16 17 0
18 -5 0
18 -17 0
5 17 -18 0
-14 5 -11 4 6 -12 0
-2 -17 4 13 6 0
-17 10 -14 -5 8 13 0
-14 12 -7 -13 8 17 0
18 0
