sat_easy_train/easy_2812_SAT.dimacs
p cnf 85 271
-4 2 0
-4 3 0
-2 -3 4 0
7 -5 0
7 -6 0
5 6 -7 0
-4 7 -8 0
4 -7 -8 0
-4 -7 8 0
4 7 8 0
-10 8 0
-10 9 0
-8 -9 10 0
1 -10 -11 0
-1 10 -11 0
1 10 11 0
-1 -10 11 0
-12 13 -14 0
12 -13 -14 0
-12 -13 14 0
12 13 14 0
-10 14 -15 0
10 -14 -15 0
-10 -14 15 0
10 14 15 0
16 -11 0
16 15 0
11 -15 -16 0
18 -19 -20 0
-18 19 -20 0
18 19 20 0
-18 -19 20 0
3 20 -21 0
-3 -20 -21 0
3 -20 21 0
-3 20 21 0
22 -17 0
22 21 0
17 -21 -22 0
-23 2 -24 0
23 -2 -24 0
-23 -2 24 0
23 2 24 0
25 22 0
25 24 0
-22 -24 -25 0
-16 25 -26 0
16 -25 -26 0
-16 -25 26 0
16 25 26 0
8 2 -27 0
-8 -2 -27 0
8 -2 27 0
-8 2 27 0
-28 7 0
-28 6 0
-7 -6 28 0
29 -28 0
29 8 0
28 -8 -29 0
27 29 -30 0
-27 -29 -30 0
27 -29 30 0
-27 29 30 0
17 2 -31 0
-17 -2 -31 0
17 -2 31 0
-17 2 31 0
-32 31 0
-32 2 0
-31 -2 32 0
33 -32 0
33 8 0
32 -8 -33 0
34 -30 0
34 -33 0
30 33 -34 0
-35 26 0
-35 -34 0
-26 34 35 0
37 -13 0
37 -36 0
13 36 -37 0
2 -37 -38 0
-2 37 -38 0
2 37 38 0
-2 -37 38 0
-40 39 0
-40 31 0
-39 -31 40 0
-41 40 0
-41 -5 0
-40 5 41 0
-42 -8 0
-42 41 0
8 -41 42 0
-43 5 0
-43 5 0
-5 43 0
-44 -42 0
-44 -43 0
42 43 44 0
45 -1 0
45 2 0
1 -2 -45 0
44 45 -46 0
-44 -45 -46 0
44 -45 46 0
-44 45 46 0
-47 -38 0
-47 -46 0
38 46 47 0
48 24 0
48 -6 0
-24 6 -48 0
-49 -48 0
-49 -48 0
48 49 0
51 40 0
51 50 0
-40 -50 -51 0
52 -21 0
52 -5 0
21 5 -52 0
-36 31 -53 0
36 -31 -53 0
-36 -31 53 0
36 31 53 0
7 53 -54 0
-7 -53 -54 0
7 -53 54 0
-7 53 54 0
55 -52 0
55 54 0
52 -54 -55 0
56 -51 0
56 55 0
51 -55 -56 0
49 56 -57 0
-49 -56 -57 0
49 -56 57 0
-49 56 57 0
58 -17 0
58 13 0
17 -13 -58 0
59 -31 0
59 28 0
31 -28 -59 0
-60 -58 0
-60 -59 0
58 59 60 0
-12 -61 -62 0
12 61 -62 0
-12 61 62 0
12 -61 62 0
-62 40 -63 0
62 -40 -63 0
-62 -40 63 0
62 40 63 0
-60 -63 -64 0
60 63 -64 0
-60 63 64 0
60 -63 64 0
-65 20 0
-65 62 0
-20 -62 65 0
-66 40 0
-66 -48 0
-40 48 66 0
67 65 0
67 -66 0
-65 66 -67 0
-68 -23 0
-68 -40 0
23 40 68 0
69 -67 0
69 -68 0
67 68 -69 0
-70 -64 0
-70 69 0
64 -69 70 0
57 70 -71 0
-57 -70 -71 0
57 -70 71 0
-57 70 71 0
-72 -23 0
-72 1 0
23 -1 72 0
73 -72 0
73 41 0
72 -41 -73 0
3 12 -74 0
-3 -12 -74 0
3 -12 74 0
-3 12 74 0
75 -73 0
75 -74 0
73 74 -75 0
-71 -75 -76 0
71 75 -76 0
-71 75 76 0
71 -75 76 0
-21 37 -77 0
21 -37 -77 0
-21 -37 77 0
21 37 77 0
78 32 0
78 -12 0
-32 12 -78 0
77 -78 -79 0
-77 78 -79 0
77 78 79 0
-77 -78 79 0
-80 -17 0
-80 -79 0
17 79 80 0
-31 -36 -81 0
31 36 -81 0
-31 36 81 0
31 -36 81 0
-80 81 -82 0
80 -81 -82 0
-80 -81 82 0
80 81 82 0
76 82 -83 0
-76 -82 -83 0
76 -82 83 0
-76 82 83 0
-47 -83 -84 0
47 83 -84 0
-47 83 84 0
47 -83 84 0
85 -35 0
85 -84 0
35 84 -85 0
11 -12 -73 -85 36 0
-68 -6 -4 -56 58 0
61 -69 0
42 25 34 -19 77 0
-31 64 0
-72 -68 32 13 0
-9 72 75 -6 0
-48 14 -52 -35 0
-78 -12 0
-52 -11 0
-23 -72 19 59 0
50 19 0
-14 36 -70 -19 0
-52 46 -47 0
14 18 0
-74 -26 -46 0
53 -47 0
-21 -39 12 -82 -64 -28 0
-63 -80 0
5 -56 -15 -38 62 32 0
-12 20 6 0
71 -63 -42 36 0
32 40 54 0
72 69 -2 0
43 -77 33 -6 38 0
-28 35 0
12 83 0
20 25 -45 28 44 46 0
-26 -42 29 0
-76 33 56 -17 0
37 64 34 0
51 -64 -12 14 0
-78 -45 8 0
73 -37 -25 -12 42 53 0
82 67 24 -76 -33 34 0
85 0
